Cost: 437
0-38-10-31-25-18-24-49-16-0
0-26-12-40-32-44-3-17-0
0-45-15-20-37-5-47-21-30-0
0-6-33-23-41-43-1-22-28-2-0
0-7-35-14-19-8-46-34-4-0
Cost: 437
0-7-35-14-19-8-46-34-4-0
0-45-15-20-37-5-47-21-30-0
0-39-10-31-25-18-24-49-16-0
0-6-33-1-23-43-42-22-28-2-0
0-26-12-40-32-44-3-17-0
Cost: 437
0-38-10-31-25-18-24-49-16-0
0-26-12-40-32-44-3-17-0
0-45-15-20-37-5-47-21-30-0
0-6-33-23-41-43-1-22-28-2-0
0-7-35-14-19-8-46-34-4-0
Cost: 437
0-6-33-1-43-42-22-28-2-0
0-30-21-47-5-37-20-15-45-0
0-26-10-31-25-18-24-23-16-51-0
0-17-40-3-44-32-39-12-0
0-4-34-46-8-19-14-35-7-0
Cost: 437
0-45-15-20-37-5-47-21-30-0
0-2-28-22-42-43-1-33-6-0
0-26-10-31-25-18-24-49-23-16-0
0-7-35-14-19-8-46-34-4-0
0-17-40-3-44-32-39-12-0
Cost: 437
0-39-10-31-25-18-24-49-16-0
0-26-12-40-32-44-3-17-0
0-45-15-20-37-5-47-21-30-0
0-2-28-22-42-43-23-1-33-6-0
0-4-34-46-8-19-14-35-7-0
Cost: 437
0-6-33-23-41-43-1-22-28-2-0
0-17-3-44-32-40-12-26-0
0-4-34-46-8-19-14-35-7-0
0-39-10-31-25-18-24-49-16-0
0-45-15-20-37-5-47-21-30-0
Cost: 437
0-30-21-47-5-37-20-15-45-0
0-2-28-22-42-43-1-33-6-0
0-51-16-23-24-18-25-31-10-26-0
0-12-40-39-32-44-3-17-0
0-7-35-14-19-8-46-34-4-0
Cost: 437
0-30-21-47-5-37-20-15-45-0
0-2-28-22-42-43-1-33-6-0
0-51-16-23-24-18-25-31-10-26-0
0-12-40-39-32-44-3-17-0
0-7-35-14-19-8-46-34-4-0
Cost: 437
0-7-35-14-19-8-46-34-4-0
0-17-3-44-32-39-40-12-0
0-30-21-47-5-37-20-15-45-0
0-2-28-22-42-43-1-33-6-0
0-26-10-31-25-18-24-49-23-16-0
Cost: 437
0-7-35-14-19-8-46-34-4-0
0-12-40-39-32-44-3-17-0
0-26-10-31-25-18-24-23-16-51-0
0-45-15-20-37-5-47-21-30-0
0-2-28-22-42-43-1-33-6-0
Cost: 437
0-7-35-14-19-8-46-34-4-0
0-12-40-39-32-44-3-17-0
0-26-10-31-25-18-24-23-16-51-0
0-45-15-20-37-5-47-21-30-0
0-2-28-22-42-43-1-33-6-0
Cost: 437
0-7-35-14-19-8-46-34-4-0
0-12-40-39-32-44-3-17-0
0-26-10-31-25-18-24-23-16-51-0
0-45-15-20-37-5-47-21-30-0
0-2-28-22-42-43-1-33-6-0
Cost: 437
0-7-35-14-19-8-46-34-4-0
0-12-40-39-32-44-3-17-0
0-26-10-31-25-18-24-23-16-51-0
0-45-15-20-37-5-47-21-30-0
0-2-28-22-42-43-1-33-6-0
Cost: 437
0-7-35-14-19-8-46-34-4-0
0-12-40-39-32-44-3-17-0
0-26-10-31-25-18-24-23-16-51-0
0-45-15-20-37-5-47-21-30-0
0-2-28-22-42-43-1-33-6-0
Cost: 437
0-7-35-14-19-8-46-34-4-0
0-12-40-39-32-44-3-17-0
0-26-10-31-25-18-24-23-16-51-0
0-45-15-20-37-5-47-21-30-0
0-2-28-22-42-43-1-33-6-0
Cost: 437
0-7-35-14-19-8-46-34-4-0
0-12-40-39-32-44-3-17-0
0-26-10-31-25-18-24-23-16-51-0
0-45-15-20-37-5-47-21-30-0
0-2-28-22-42-43-1-33-6-0
Cost: 437
0-7-35-14-19-8-46-34-4-0
0-12-40-39-32-44-3-17-0
0-26-10-31-25-18-24-23-16-51-0
0-45-15-20-37-5-47-21-30-0
0-2-28-22-42-43-1-33-6-0
Cost: 437
0-7-35-14-19-8-46-34-4-0
0-12-40-39-32-44-3-17-0
0-26-10-31-25-18-24-23-16-51-0
0-45-15-20-37-5-47-21-30-0
0-2-28-22-42-43-1-33-6-0
Cost: 437
0-7-35-14-19-8-46-34-4-0
0-12-40-39-32-44-3-17-0
0-26-10-31-25-18-24-23-16-51-0
0-45-15-20-37-5-47-21-30-0
0-2-28-22-42-43-1-33-6-0
Cost: 437
0-7-35-14-19-8-46-34-4-0
0-12-40-39-32-44-3-17-0
0-26-10-31-25-18-24-23-16-51-0
0-45-15-20-37-5-47-21-30-0
0-2-28-22-42-43-1-33-6-0
Cost: 437
0-7-35-14-19-8-46-34-4-0
0-12-40-39-32-44-3-17-0
0-26-10-31-25-18-24-23-16-51-0
0-45-15-20-37-5-47-21-30-0
0-2-28-22-42-43-1-33-6-0
Cost: 437
0-2-28-22-42-43-1-33-6-0
0-17-3-44-32-39-40-12-0
0-26-10-31-25-18-24-49-23-16-0
0-45-15-20-37-5-47-21-30-0
0-4-34-46-8-19-14-35-7-0
Cost: 437
0-7-35-14-19-8-46-34-4-0
0-12-40-39-32-44-3-17-0
0-26-10-31-25-18-24-23-16-51-0
0-45-15-20-37-5-47-21-30-0
0-2-28-22-42-43-1-33-6-0
Cost: 437
0-7-35-14-19-8-46-34-4-0
0-12-40-39-32-44-3-17-0
0-26-10-31-25-18-24-23-16-51-0
0-45-15-20-37-5-47-21-30-0
0-2-28-22-42-43-1-33-6-0
Cost: 437
0-7-35-14-19-8-46-34-4-0
0-12-40-39-32-44-3-17-0
0-26-10-31-25-18-24-23-16-51-0
0-45-15-20-37-5-47-21-30-0
0-2-28-22-42-43-1-33-6-0
Cost: 437
0-26-12-40-32-44-3-17-0
0-16-49-24-18-25-31-10-39-0
0-4-34-46-8-19-14-35-7-0
0-45-15-20-37-5-47-21-30-0
0-6-33-1-23-43-42-22-28-2-0
Cost: 437
0-7-35-14-19-8-46-34-4-0
0-16-49-24-18-25-31-10-39-0
0-26-12-40-32-44-3-17-0
0-2-28-22-42-43-23-1-33-6-0
0-30-21-47-5-37-20-15-45-0
Cost: 437
0-2-28-22-42-43-1-33-6-0
0-30-21-47-5-37-20-15-45-0
0-7-35-14-19-8-46-34-4-0
0-26-10-31-25-18-24-23-16-51-0
0-17-40-3-44-32-39-12-0
Cost: 437
0-4-34-46-8-19-14-35-7-0
0-45-15-20-37-5-47-21-30-0
0-2-28-22-42-43-1-33-6-0
0-51-16-23-24-18-25-31-10-26-0
0-17-3-44-32-39-40-12-0
Cost: 437
0-17-40-3-44-32-39-12-0
0-16-23-49-24-18-25-31-10-26-0
0-2-28-22-42-43-1-33-6-0
0-30-21-47-5-37-20-15-45-0
0-4-34-46-8-19-14-35-7-0
